30
5
20645
127 171 372 520 224
false
0.25
1 49 22 1 16 39 21 9 27 31 26 1 49 47 33 30 49 6 4 50 8 49 23 34 8 20 20 7 22 7
23 12 26 43 19 49 6 38 17 3 18 27 21 14 38 2 5 47 19 29 3 8 22 39 16 13 38 44 39 3
33 28 49 46 41 47 2 42 25 13 6 13 18 30 17 39 46 46 26 45 7 1 26 36 22 6 6 50 20 23
36 50 35 30 20 1 2 25 33 6 40 48 20 34 24 7 38 12 19 2 25 27 3 34 16 26 25 2 42 1
42 50 31 8 15 31 37 19 2 11 45 23 33 33 38 26 13 4 47 36 41 41 22 9 41 24 43 9 50 35
28 4 0 99 35 11 80 30 12 54 3 99 67 97 76 47 65 1 37 100 0 21 57 41 34 8 59 72 17 37
0 32 0 0 34 16 0 0 0 8 0 0 0 0 0 0 0 0 0 0 0 0 0 0 0 0 0 0 20 0
0 0 0 0 21 44 0 0 0 0 76 0 0 45 0 0 76 0 0 85 0 0 0 0 0 0 0 0 24
0 0 0 0 0 0 0 0 0 0 0 0 0 0 0 0 0 0 0 0 56 0 2 76 20 0 0 15
0 0 0 0 0 9 0 0 0 98 0 25 0 0 0 0 29 0 29 0 0 0 0 0 0 58 0
0 0 0 97 0 0 0 0 0 28 0 12 0 52 0 0 0 10 0 0 55 0 0 0 47 0
0 73 0 0 0 0 0 62 13 0 0 0 0 0 0 0 0 0 0 0 91 0 0 0 0
0 0 0 0 0 0 0 86 0 76 0 81 14 0 0 0 0 0 0 0 0 6 49 0
0 0 0 0 0 0 0 0 0 0 0 0 0 0 62 75 0 0 0 0 0 0 0
0 13 0 0 70 0 0 0 0 0 0 0 20 20 0 16 0 0 36 0 92 0
0 0 0 0 31 56 0 0 0 0 0 0 0 0 56 0 0 0 0 0 0
0 0 27 40 0 0 0 0 0 17 99 0 0 72 0 0 0 11 0 0
0 16 0 0 0 0 0 30 0 0 0 0 0 0 0 0 0 0 0
0 0 0 0 0 0 0 0 0 11 0 0 0 0 0 0 3 0
0 0 0 0 0 0 0 95 0 0 0 0 0 0 0 0 73
0 95 0 0 0 5 42 0 0 75 77 0 68 0 0 97
0 0 0 0 0 0 0 56 0 0 95 46 0 0 0
0 0 0 0 0 0 94 0 0 0 0 18 0 0
0 80 0 0 11 0 0 0 0 0 0 0 82
0 0 0 0 0 0 65 0 63 0 0 0
0 0 0 0 0 0 0 0 25 0 0
0 0 0 22 0 0 33 0 70 0
0 0 54 24 0 0 0 13 0
0 0 0 0 0 0 2 0
0 38 0 48 31 0 0
0 5 0 0 0 0
0 0 0 0 0
0 0 0 0
0 0 0
0 0
0 0 97 0 0 44 8 0 18 0 0 0 0 0 0 0 0 0 0 0 17 0 0 0 0 62 26 0 0
0 92 65 52 78 0 0 0 0 37 67 0 0 0 65 0 0 0 0 71 0 0 54 0 46 0 0 0
0 0 0 0 0 0 62 0 0 0 0 4 0 0 35 0 0 47 0 18 10 81 0 0 0 0 67
0 0 0 0 81 0 0 0 0 0 0 0 0 0 0 0 0 0 6 0 0 46 0 26 0 0
0 0 0 100 73 0 0 0 88 0 0 0 53 15 0 0 0 0 0 0 87 0 98 0 0
0 0 0 0 0 57 0 0 0 0 0 0 0 0 0 0 0 0 0 60 0 0 0 0
0 48 0 0 84 0 0 5 0 0 0 27 0 61 0 0 0 0 84 40 55 0 0
0 58 0 21 0 0 0 0 0 11 6 0 0 0 0 0 76 0 0 88 0 0
0 56 0 0 12 98 0 0 0 0 0 64 0 0 96 16 0 44 0 0 0
0 92 0 21 0 0 0 3 0 0 0 0 0 0 0 0 0 0 72 80
0 0 0 0 0 12 0 19 33 0 100 0 0 0 0 0 0 0 0
0 0 88 0 27 0 0 0 29 0 0 71 65 0 0 0 0 60
0 62 17 0 63 0 0 0 11 16 0 0 77 0 0 0 86
0 0 0 0 0 28 45 0 0 0 0 0 0 0 0 0
0 0 0 65 0 0 0 36 45 0 0 0 84 0 0
0 0 0 0 0 0 0 21 0 0 0 0 0 94
0 0 0 0 62 0 0 0 25 7 0 99 31
0 72 80 74 0 0 0 0 0 0 0 0
0 67 0 0 49 61 11 0 0 0 81
0 45 0 0 0 0 0 0 0 0
0 0 0 0 0 0 0 34 0
0 0 76 0 0 0 9 19
0 0 0 0 60 0 0
0 7 62 0 0 0
0 3 0 0 62
0 0 53 0
0 0 17
0 0
0
0 0 0 18 0 0 34 0 0 0 21 0 0 0 0 0 93 0 0 0 72 0 0 0 0 51 0 0
0 0 11 0 0 0 0 0 97 0 12 51 5 22 0 0 19 28 40 0 0 0 39 16 0 0 0
0 0 0 0 0 0 0 56 0 68 59 0 0 0 66 0 0 0 0 0 0 7 0 0 71 56
0 0 0 0 0 92 50 0 0 0 0 0 13 0 0 27 0 62 0 0 0 2 0 0 0
0 26 0 0 0 0 96 0 0 0 0 0 0 33 70 0 0 0 0 0 0 0 0 23
0 83 0 0 96 0 0 0 28 0 0 0 0 0 48 0 4 0 0 0 0 0 0
0 0 20 33 2 0 0 9 93 86 0 0 0 0 0 32 0 0 0 0 0 0
0 0 0 0 0 21 0 0 0 0 0 22 0 57 0 0 0 0 0 0 0
0 0 43 0 0 0 72 55 0 54 0 0 47 85 98 0 33 0 0 97
0 67 0 43 0 0 0 0 48 0 0 0 41 0 0 0 1 0 0
0 0 0 0 0 47 0 0 0 61 70 60 62 15 55 0 0 0
0 87 0 0 0 96 0 99 26 0 0 0 10 0 0 0 0
0 0 0 27 0 71 0 0 84 0 0 0 0 0 87 0
0 0 0 0 0 0 0 0 0 0 80 0 69 0 78
0 0 0 85 0 0 0 0 0 0 53 0 84 0
0 0 0 0 0 62 0 0 0 0 0 0 0
0 96 0 0 0 0 0 0 90 0 0 0
0 17 0 0 0 0 0 0 42 0 32
0 0 0 0 0 15 100 0 0 26
0 0 24 0 0 0 0 3 7
0 0 0 59 0 0 0 0
0 0 0 0 0 0 0
0 50 0 0 35 0
0 0 0 0 99
0 0 0 17
0 0 0
0 46
0
0 0 0 18 27 0 4 0 0 80 0 0 0 0 0 0 30 0 45 0 0 47 28 51 55 72 79
0 0 95 0 77 34 0 0 0 0 94 0 0 0 0 0 44 0 0 0 0 0 0 0 0 0
0 0 0 0 0 0 22 0 58 0 0 0 0 24 0 0 0 0 0 0 0 77 0 0 0
0 0 0 0 0 0 0 0 0 0 0 67 0 0 0 0 0 0 89 0 0 61 10 0
0 0 0 0 57 0 38 0 0 0 0 11 0 0 0 5 0 0 0 0 0 0 0
0 0 0 0 0 0 0 0 0 0 0 94 0 10 26 63 0 0 91 0 94 0
0 97 49 0 0 24 0 50 0 0 0 0 0 39 0 0 0 6 91 0 0
0 53 0 0 0 0 0 0 0 0 0 0 19 35 0 0 0 0 0 0
0 61 0 0 0 89 0 0 3 0 42 0 0 0 0 0 0 0 0
0 0 92 0 83 0 0 0 0 0 0 0 0 0 77 0 0 0
0 45 0 0 0 0 0 0 0 0 16 0 0 0 88 0 0
0 0 0 83 0 0 0 0 0 0 0 0 0 6 0 0
0 0 0 0 45 0 0 30 0 57 0 0 94 0 0
0 54 0 0 0 0 0 3 58 0 64 0 0 70
0 0 0 17 26 0 0 0 97 0 0 0 0
0 10 0 0 0 0 41 0 0 0 0 0
0 0 0 0 31 0 77 0 0 0 0
0 0 0 0 0 0 0 0 0 0
0 0 0 88 0 0 0 90 0
0 0 0 0 0 0 52 52
0 0 0 0 0 0 0
0 0 0 0 0 0
0 0 0 0 0
0 0 0 0
0 0 0
0 0
0
0 0 0 0 0 0 0 0 0 0 0 0 0 35 71 0 0 61 0 0 0 0 0 0 0 0
0 87 0 73 0 0 0 0 0 0 1 0 0 0 0 0 0 0 83 0 0 83 80 0 37
0 0 0 0 0 0 0 0 0 0 0 77 89 0 0 0 0 0 14 0 0 0 0 0
0 0 0 0 45 0 0 0 0 0 0 0 0 0 0 0 39 0 32 0 0 0 0
0 0 0 0 0 7 0 0 42 38 0 0 0 0 0 81 84 0 38 23 78 51
0 0 0 0 0 0 0 9 0 0 0 0 0 0 0 0 75 0 60 96 0
0 0 0 0 0 0 0 0 0 12 0 0 0 0 0 0 0 0 12 0
0 0 54 15 0 0 0 55 0 54 0 0 0 0 0 0 90 0 0
0 0 0 0 0 0 0 0 0 0 0 0 81 0 0 0 0 0
0 0 100 44 0 0 0 26 67 58 0 0 69 0 0 63 0
0 0 0 0 0 96 0 0 54 22 49 76 0 83 0 0
0 0 20 2 0 66 0 0 0 0 0 0 0 0 0
0 0 0 0 52 0 0 0 0 0 0 0 0 44
0 0 37 0 0 0 0 26 54 0 0 0 0
0 0 0 96 0 0 0 0 0 0 42 0
0 62 0 0 0 86 0 0 0 0 86
0 0 71 0 0 88 0 74 0 24
0 20 0 0 4 0 0 0 0
0 0 0 0 67 12 0 3
0 0 0 0 61 0 0
0 0 0 0 0 0
0 38 0 0 0
0 0 57 73
0 0 0
0 0
0
0 0 0 0 76 0 0 0 0 88 44 0 28 0 0 0 0 0 0 0 0 98 0 0 0
0 0 31 0 95 0 0 0 37 0 0 0 0 0 0 0 0 0 0 0 0 33 0 0
0 96 0 0 95 30 0 44 0 0 0 0 91 0 0 47 98 0 0 0 0 0 0
0 51 0 0 3 0 0 0 0 0 0 0 81 0 0 0 0 0 75 0 49 0
0 95 54 0 64 0 0 0 0 0 0 0 0 0 20 0 0 83 0 44 0
0 0 0 33 0 0 22 0 0 0 0 31 0 0 0 0 0 0 0 0
0 0 0 10 0 0 0 0 0 0 87 0 32 70 0 69 0 0 57
0 0 0 0 35 0 0 0 0 0 40 0 0 15 0 82 29 0
0 0 0 0 0 0 94 0 33 7 53 0 0 0 28 47 69
0 0 0 0 0 0 0 0 0 0 6 0 66 0 0 0
0 0 0 0 0 0 97 0 0 0 0 48 0 0 0
0 0 0 0 52 21 0 0 0 29 0 0 0 21
0 0 0 45 0 0 48 0 0 0 0 0 21
0 0 0 35 0 0 0 0 0 32 24 0
0 0 0 0 0 0 0 0 0 0 50
0 0 37 0 0 0 0 0 0 21
0 0 21 39 57 62 15 51 0
0 59 0 0 0 0 0 0
0 0 0 0 0 0 5
0 0 0 0 0 0
0 0 72 0 0
0 0 0 0
0 0 68
0 0
0
0 0 0 0 0 0 0 0 0 0 0 0 0 0 87 0 81 0 0 0 0 0 85 0
0 0 0 0 55 17 34 0 0 0 0 0 0 97 29 0 0 0 26 0 0 0 0
0 0 0 0 80 0 0 0 54 0 49 0 0 0 0 0 0 24 0 0 0 0
0 0 0 0 0 0 0 0 0 0 0 0 0 78 0 0 0 0 23 0 0
0 0 91 25 0 0 0 0 0 98 0 0 0 0 17 0 0 0 0 87
0 0 20 0 0 0 84 0 0 0 0 0 0 0 77 0 14 0 0
0 18 96 0 55 0 0 0 0 0 0 0 0 0 35 0 0 4
0 50 0 94 82 0 51 0 89 0 0 0 0 0 0 0 97
0 0 0 0 0 0 0 43 0 0 0 0 0 0 0 54
0 0 0 18 0 0 0 23 0 70 96 2 12 0 0
0 0 0 0 37 0 0 0 0 0 0 0 0 0
0 22 0 0 0 0 0 91 0 0 0 76 0
0 43 96 11 0 30 31 0 41 0 0 0
0 0 0 19 0 0 0 0 0 0 80
0 67 0 0 0 0 0 4 0 0
0 36 0 0 0 0 0 0 0
0 0 0 0 0 37 0 0
0 0 0 76 0 0 0
0 0 0 72 0 42
0 0 0 0 0
0 91 37 0
0 55 0
0 0
0
0 0 0 76 0 50 0 0 0 0 0 92 61 0 0 0 0 0 15 0 58 0 56
0 35 0 0 0 0 0 42 0 0 0 0 0 0 0 0 24 0 0 0 0 0
0 0 0 0 0 0 35 0 57 77 35 0 96 0 0 0 63 0 0 0 0
0 0 39 0 0 0 0 0 0 0 19 0 0 90 0 66 0 0 0 0
0 0 14 63 0 0 0 0 0 0 0 0 0 0 0 0 0 0 0
0 74 0 0 0 0 0 0 0 0 6 0 0 0 10 0 0 0
0 90 23 0 11 0 0 87 0 0 0 0 56 0 0 0 0
0 0 0 99 0 0 25 0 0 0 0 0 58 0 0 0
0 0 58 0 59 0 0 0 90 0 0 0 0 40 0
0 0 0 29 0 0 0 0 0 0 0 0 0 0
0 0 0 0 3 0 49 50 47 100 0 54 0
0 0 0 0 89 0 0 0 67 0 0 0
0 0 0 0 0 87 0 0 0 0 0
0 0 0 0 0 0 0 33 0 0
0 0 0 0 0 0 0 100 0
0 0 0 0 83 0 0 0
0 0 0 61 0 0 69
0 0 0 0 0 0
0 43 0 0 0
0 0 0 90
0 0 0
0 0
0
0 0 0 57 0 0 62 0 69 58 0 0 0 0 70 37 0 38 0 0 0 70
0 0 0 0 0 0 75 66 0 0 0 0 0 23 19 84 39 0 0 0 0
0 0 0 0 0 0 66 0 0 83 0 0 48 0 0 35 0 0 0 0
0 0 96 0 24 0 0 51 0 0 0 0 59 0 0 0 78 0 0
0 0 0 0 0 0 0 7 0 98 0 100 0 0 0 0 0 59
0 44 0 99 0 0 0 21 0 0 0 72 0 60 96 0 0
0 46 0 0 0 0 0 0 68 71 0 95 0 66 53 0
0 26 0 0 54 0 0 0 0 0 0 0 0 0 0
0 0 0 0 0 0 0 0 0 0 37 0 18 0
0 0 0 40 0 0 0 0 35 0 52 19 0
0 87 0 33 100 0 31 0 0 0 0 0
0 0 86 0 0 0 0 0 0 85 0
0 0 0 0 0 63 0 0 95 0
0 0 0 0 0 0 45 0 92
0 0 0 0 60 0 0 0
0 16 0 73 0 0 16
0 0 0 0 0 0
0 35 3 0 0
0 0 0 50
0 0 0
0 3
0
0 0 0 17 0 54 0 0 0 0 0 26 0 0 29 0 0 0 3 0 98
0 0 0 0 0 20 71 75 24 0 0 0 0 0 0 0 39 0 20 0
0 92 2 0 0 0 0 0 0 0 96 17 0 0 0 50 72 0 0
0 0 0 0 0 0 22 87 0 0 0 18 0 94 0 0 0 0
0 0 87 0 0 0 0 1 63 0 0 0 0 0 9 0 0
0 0 0 0 93 0 0 97 0 0 0 0 0 0 72 0
0 58 46 0 0 0 0 0 0 0 11 0 0 0 0
0 0 0 0 0 0 0 0 0 0 0 0 95 0
0 0 0 0 0 0 0 64 0 0 0 0 22
0 0 0 67 0 0 0 0 90 0 0 0
0 0 0 0 0 0 0 0 0 0 52
0 0 0 0 0 41 0 0 47 68
0 0 0 83 0 0 0 0 0
0 57 0 69 69 42 0 59
0 0 0 0 0 0 0
0 0 0 0 0 0
0 30 0 38 0
0 0 0 0
0 0 0
0 0
0
0 0 21 9 10 79 0 0 0 0 68 0 43 0 0 0 0 0 0 0
0 0 0 0 0 0 78 0 0 97 0 30 18 0 0 66 57 0 0
0 0 0 0 0 0 9 0 23 100 92 0 0 50 48 0 0 0
0 0 0 0 0 97 0 0 0 0 0 49 0 31 15 31 0
0 0 0 80 0 0 95 0 0 0 0 0 44 0 92 0
0 0 0 0 0 25 0 0 0 0 0 0 51 0 0
0 0 6 0 0 0 53 0 0 0 0 0 0 95
0 0 0 30 0 41 0 0 0 0 61 0 0
0 0 0 74 59 0 41 0 0 0 57 0
0 0 0 0 0 0 78 47 0 0 0
0 0 39 11 0 0 73 0 26 0
0 36 95 42 0 0 0 0 0
0 0 0 0 0 0 0 0
0 0 0 0 0 20 0
0 94 81 0 74 0
0 98 0 75 0
0 40 0 36
0 7 78
0 0
0
0 4 78 65 0 0 0 0 51 0 0 0 7 0 0 36 0 0 79
0 0 0 0 0 0 0 0 0 0 0 0 79 0 52 39 0 18
0 57 0 0 0 0 0 0 0 0 0 80 0 0 53 0 87
0 21 0 37 0 0 0 0 0 0 73 0 74 0 0 0
0 0 0 37 0 0 0 0 0 97 0 0 0 18 75
0 0 0 0 0 0 0 16 0 73 0 0 0 0
0 0 0 0 0 0 0 0 0 0 0 0 81
0 0 21 0 7 0 0 0 0 0 80 93
0 0 0 0 0 7 5 0 0 0 0
0 93 0 0 31 0 0 44 0 0
0 0 0 0 0 0 0 0 0
0 0 0 0 0 0 38 0
0 0 0 60 14 0 0
0 0 0 25 0 0
0 0 0 0 0
0 0 30 0
0 0 0
0 90
0
0 39 0 0 0 0 0 93 0 53 0 0 0 0 0 0 0 70
0 0 0 0 0 0 2 0 0 20 69 0 0 68 0 0 0
0 0 0 0 0 0 70 0 0 15 0 11 0 39 0 0
0 0 14 0 0 0 0 0 0 0 0 0 0 81 2
0 0 0 0 0 0 0 0 0 0 19 22 0 0
0 0 0 0 46 40 0 0 0 50 0 0 0
0 0 0 0 0 0 30 0 0 11 65 0
0 0 0 0 0 0 0 0 0 0 19
0 0 38 0 0 17 0 89 0 0
0 69 23 0 0 0 0 0 0
0 0 0 0 0 0 0 0
0 0 0 19 15 59 0
0 0 0 0 0 35
0 0 0 41 0
0 0 0 23
0 70 0
0 92
0
0 51 0 0 0 0 0 0 0 0 43 0 0 0 0 0 49
0 0 0 0 37 0 0 0 0 0 0 0 0 0 0 0
0 0 99 0 0 54 0 0 0 0 0 62 0 0 40
0 0 17 0 0 0 0 78 0 0 0 0 0 0
0 0 89 0 35 0 0 0 94 0 0 0 0
0 0 0 0 0 0 0 0 0 0 0 0
0 0 0 0 97 0 0 0 6 0 0
0 0 0 0 0 73 0 0 0 41
0 0 0 0 0 0 85 0 0
0 0 0 0 0 0 0 0
0 37 0 0 0 0 0
0 52 0 0 25 60
0 0 0 0 0
0 0 0 54
0 77 0
0 0
0
0 0 0 0 0 33 0 61 38 0 0 0 0 0 0 0
0 0 0 0 0 0 0 0 0 0 46 0 61 0 0
0 0 0 0 0 0 0 0 0 39 62 0 0 0
0 0 0 0 87 0 0 0 0 0 0 0 0
0 0 0 0 0 0 0 83 0 0 27 0
0 0 0 0 0 0 33 0 0 0 16
0 0 0 0 0 0 0 0 0 0
0 0 0 0 85 85 18 0 0
0 0 0 0 95 0 0 0
0 0 33 0 0 0 0
0 58 44 34 70 99
0 0 0 0 2
0 0 0 0
0 0 0
0 0
0
0 0 0 37 52 0 0 0 44 0 0 1 6 0 8
0 0 0 0 0 0 0 0 0 0 0 0 0 6
0 0 0 0 0 0 73 0 0 0 0 0 0
0 0 0 0 50 0 0 14 0 3 0 27
0 0 0 0 27 3 0 0 0 0 10
0 0 27 0 0 0 0 0 70 24
0 0 0 0 0 0 0 0 0
0 0 0 0 0 58 0 0
0 0 55 0 0 41 0
0 78 0 0 0 26
0 0 0 0 31
0 0 0 23
0 0 0
0 0
0
0 41 0 0 0 0 98 71 0 58 0 0 0 51
0 93 0 87 0 0 0 0 0 0 0 0 0
0 0 0 37 34 0 0 0 0 44 0 0
0 61 58 0 0 0 0 0 64 0 51
0 0 0 0 0 0 16 24 0 0
0 0 0 0 0 0 68 0 0
0 0 99 0 0 0 0 0
0 54 0 0 42 0 0
0 0 0 89 0 80
0 0 0 0 1
0 0 43 67
0 70 0
0 0
0
0 0 0 48 0 0 0 0 35 0 0 0 0
0 38 0 92 0 0 0 0 0 0 76 0
0 0 0 0 0 5 0 0 0 74 94
0 4 0 0 0 83 0 42 0 96
0 0 0 84 0 0 0 0 17
0 0 43 0 0 0 38 0
0 95 0 0 0 31 0
0 0 0 0 0 0
0 0 0 74 75
0 0 0 0
0 0 0
0 17
0
0 66 62 0 0 0 16 0 0 0 71 72
0 97 0 0 98 0 0 0 0 67 0
0 0 0 0 70 73 0 0 72 10
0 77 0 0 0 0 29 0 0
0 0 0 92 79 0 0 0
0 0 20 0 51 0 48
0 0 0 0 0 0
0 0 0 5 0
0 0 0 0
0 0 57
0 0
0
0 0 0 0 0 0 74 74 0 0 0
0 76 0 36 0 0 80 28 0 0
0 0 0 15 0 0 0 0 0
0 0 0 0 20 3 0 0
0 0 0 0 0 0 0
0 0 93 0 0 0
0 0 0 0 76
0 0 0 0
0 0 0
0 0
0
0 0 0 0 0 0 0 0 0 28
0 0 0 24 0 82 0 0 0
0 0 0 0 0 31 0 95
0 0 0 0 0 27 0
0 0 0 0 0 0
0 0 0 71 0
0 0 0 84
0 0 0
0 100
0
0 0 0 0 5 0 0 0 0
0 0 0 0 99 2 22 0
0 0 0 0 0 0 0
0 0 34 0 0 0
0 0 48 0 0
0 0 0 0
0 0 0
0 0
0
0 0 0 0 0 0 0 57
0 0 0 56 0 0 0
0 0 0 86 0 60
0 0 30 6 0
0 0 45 0
0 0 0
0 0
0
0 0 98 0 8 0 0
0 0 0 0 0 65
0 0 0 0 0
0 0 0 0
0 0 60
0 0
0
0 0 79 0 0 0
0 18 8 0 70
0 0 96 0
0 0 19
0 0
0
0 0 56 0 0
0 0 0 0
0 0 0
0 0
0
0 0 0 0
0 28 13
0 55
0
0 43 0
0 83
0
0 0
0
0
5889 5829 5066 5770 5183 5502 5055 5998 5850 6143 5137 5596 5382 6177 5707 5073 4487 5700 5142 5213 5558 5305 4858 4775 5283 5551 6278 4974 5436 6495
1325.4591285526067 209.20955102040816 167.33376964049774 1388.6408324907313 265.56498823277707 1209.9820676235227 1254.9671814671815 304.5400568086884 779.4114081996435 860.1308594631176 316.3426068376068 1318.7216957760434 219.4626716141002 229.47962127984655 209.36107280232665 751.1013186813186 309.94954007091303 619.0379278445884 426.7873287966233 630.2337241379311 739.8595284552846 1280.4524063012739 491.80664842403974 213.30253896430366 337.94800443458973 414.90166666666664 384.5127719298245 792.5527099567099 179.28481918081917 2011.1639751552798
